20J7M/DAT/20J7MNLL-5.dat
20 7
25.4816 25.4816
18.7721 18.7721
26.6862 26.6862
27.2743 27.2743
20.1709 20.1709
31.1288 31.1288
27.182 27.182
21.7092 21.7092
32.597 32.597
27.242 27.242
27.448 27.448
25.6952 25.6952
21.3277 21.3277
26.6508 26.6508
23.5272 23.5272
19.2906 19.2906
27.9617 27.9617
26.1955 26.1955
17.1667 17.1667
27.3131 27.3131
71.5458