20J7M/SOL/20J7MNLL-5.sol
solution status: optimal solution found
objective value:                              70.9538
x#1#2                               0.831573937502144 	(obj:0)
x#1#6                               0.168426062497856 	(obj:0)
x#2#4                                               1 	(obj:0)
x#3#4                                               1 	(obj:0)
x#4#1                                               1 	(obj:0)
x#5#1                               0.568916359286213 	(obj:0)
x#5#2                               0.431083640713787 	(obj:0)
x#6#2                               0.219576401215439 	(obj:0)
x#6#3                               0.780423598784561 	(obj:0)
x#7#2                                               1 	(obj:0)
x#8#3                                               1 	(obj:0)
x#9#6                                               1 	(obj:0)
x#10#7                                              1 	(obj:0)
x#11#5                                              1 	(obj:0)
x#12#3                                              1 	(obj:0)
x#13#6                                              1 	(obj:0)
x#14#6                                              1 	(obj:0)
x#15#2                             0.0760344538532838 	(obj:0)
x#15#5                              0.724400805989884 	(obj:0)
x#15#7                              0.199564740156833 	(obj:0)
x#16#1                               0.25604405399784 	(obj:0)
x#16#4                               0.74395594600216 	(obj:0)
x#17#5                                              1 	(obj:0)
x#18#7                                              1 	(obj:0)
x#19#1                                              1 	(obj:0)
x#20#4                                              1 	(obj:0)
z                                             70.9538 	(obj:1)
